certificates/rado_a15_c110_N46.cnf
c Rad2 upper bound instance: x1 + 15*x2 - x3 = 110, interval [1,46]
p cnf 46 280
1 8 11 0
-1 -8 -11 0
1 9 26 0
-1 -9 -26 0
1 10 41 0
-1 -10 -41 0
2 8 12 0
-2 -8 -12 0
2 9 27 0
-2 -9 -27 0
2 10 42 0
-2 -10 -42 0
3 8 13 0
-3 -8 -13 0
3 9 28 0
-3 -9 -28 0
3 10 43 0
-3 -10 -43 0
4 8 14 0
-4 -8 -14 0
4 9 29 0
-4 -9 -29 0
4 10 44 0
-4 -10 -44 0
5 8 15 0
-5 -8 -15 0
5 9 30 0
-5 -9 -30 0
5 10 45 0
-5 -10 -45 0
1 6 7 0
-1 -6 -7 0
6 8 16 0
-6 -8 -16 0
6 9 31 0
-6 -9 -31 0
6 10 46 0
-6 -10 -46 0
2 7 0
-2 -7 0
7 8 17 0
-7 -8 -17 0
7 9 32 0
-7 -9 -32 0
3 7 8 0
-3 -7 -8 0
8 18 0
-8 -18 0
8 9 33 0
-8 -9 -33 0
4 7 9 0
-4 -7 -9 0
8 9 19 0
-8 -9 -19 0
9 34 0
-9 -34 0
5 7 10 0
-5 -7 -10 0
8 10 20 0
-8 -10 -20 0
9 10 35 0
-9 -10 -35 0
6 7 11 0
-6 -7 -11 0
8 11 21 0
-8 -11 -21 0
9 11 36 0
-9 -11 -36 0
7 12 0
-7 -12 0
8 12 22 0
-8 -12 -22 0
9 12 37 0
-9 -12 -37 0
7 8 13 0
-7 -8 -13 0
8 13 23 0
-8 -13 -23 0
9 13 38 0
-9 -13 -38 0
7 9 14 0
-7 -9 -14 0
8 14 24 0
-8 -14 -24 0
9 14 39 0
-9 -14 -39 0
7 10 15 0
-7 -10 -15 0
8 15 25 0
-8 -15 -25 0
9 15 40 0
-9 -15 -40 0
7 11 16 0
-7 -11 -16 0
8 16 26 0
-8 -16 -26 0
9 16 41 0
-9 -16 -41 0
7 12 17 0
-7 -12 -17 0
8 17 27 0
-8 -17 -27 0
9 17 42 0
-9 -17 -42 0
7 13 18 0
-7 -13 -18 0
8 18 28 0
-8 -18 -28 0
9 18 43 0
-9 -18 -43 0
7 14 19 0
-7 -14 -19 0
8 19 29 0
-8 -19 -29 0
9 19 44 0
-9 -19 -44 0
7 15 20 0
-7 -15 -20 0
8 20 30 0
-8 -20 -30 0
9 20 45 0
-9 -20 -45 0
1 6 21 0
-1 -6 -21 0
7 16 21 0
-7 -16 -21 0
8 21 31 0
-8 -21 -31 0
9 21 46 0
-9 -21 -46 0
2 6 22 0
-2 -6 -22 0
7 17 22 0
-7 -17 -22 0
8 22 32 0
-8 -22 -32 0
3 6 23 0
-3 -6 -23 0
7 18 23 0
-7 -18 -23 0
8 23 33 0
-8 -23 -33 0
4 6 24 0
-4 -6 -24 0
7 19 24 0
-7 -19 -24 0
8 24 34 0
-8 -24 -34 0
5 6 25 0
-5 -6 -25 0
7 20 25 0
-7 -20 -25 0
8 25 35 0
-8 -25 -35 0
6 26 0
-6 -26 0
7 21 26 0
-7 -21 -26 0
8 26 36 0
-8 -26 -36 0
6 7 27 0
-6 -7 -27 0
7 22 27 0
-7 -22 -27 0
8 27 37 0
-8 -27 -37 0
6 8 28 0
-6 -8 -28 0
7 23 28 0
-7 -23 -28 0
8 28 38 0
-8 -28 -38 0
6 9 29 0
-6 -9 -29 0
7 24 29 0
-7 -24 -29 0
8 29 39 0
-8 -29 -39 0
6 10 30 0
-6 -10 -30 0
7 25 30 0
-7 -25 -30 0
8 30 40 0
-8 -30 -40 0
6 11 31 0
-6 -11 -31 0
7 26 31 0
-7 -26 -31 0
8 31 41 0
-8 -31 -41 0
6 12 32 0
-6 -12 -32 0
7 27 32 0
-7 -27 -32 0
8 32 42 0
-8 -32 -42 0
6 13 33 0
-6 -13 -33 0
7 28 33 0
-7 -28 -33 0
8 33 43 0
-8 -33 -43 0
6 14 34 0
-6 -14 -34 0
7 29 34 0
-7 -29 -34 0
8 34 44 0
-8 -34 -44 0
6 15 35 0
-6 -15 -35 0
7 30 35 0
-7 -30 -35 0
8 35 45 0
-8 -35 -45 0
1 5 36 0
-1 -5 -36 0
6 16 36 0
-6 -16 -36 0
7 31 36 0
-7 -31 -36 0
8 36 46 0
-8 -36 -46 0
2 5 37 0
-2 -5 -37 0
6 17 37 0
-6 -17 -37 0
7 32 37 0
-7 -32 -37 0
3 5 38 0
-3 -5 -38 0
6 18 38 0
-6 -18 -38 0
7 33 38 0
-7 -33 -38 0
4 5 39 0
-4 -5 -39 0
6 19 39 0
-6 -19 -39 0
7 34 39 0
-7 -34 -39 0
5 40 0
-5 -40 0
6 20 40 0
-6 -20 -40 0
7 35 40 0
-7 -35 -40 0
5 6 41 0
-5 -6 -41 0
6 21 41 0
-6 -21 -41 0
7 36 41 0
-7 -36 -41 0
5 7 42 0
-5 -7 -42 0
6 22 42 0
-6 -22 -42 0
7 37 42 0
-7 -37 -42 0
5 8 43 0
-5 -8 -43 0
6 23 43 0
-6 -23 -43 0
7 38 43 0
-7 -38 -43 0
5 9 44 0
-5 -9 -44 0
6 24 44 0
-6 -24 -44 0
7 39 44 0
-7 -39 -44 0
6 25 45 0
-6 -25 -45 0
7 40 45 0
-7 -40 -45 0
5 11 46 0
-5 -11 -46 0
6 26 46 0
-6 -26 -46 0
7 41 46 0
-7 -41 -46 0
