certificates/rado_a15_c110_N46.drat
-41 -42 -46 0
7 10 41 0
-7 -42 -45 0
-42 -45 -46 0
-10 41 -45 -46 0
41 -45 -46 0
d -10 41 -45 -46 0
-45 -46 0
d -42 -45 -46 0
-41 -46 0
d -41 -42 -46 0
7 42 45 0
42 -46 0
-7 -42 0
d -7 -42 -45 0
-46 0
-42 0
7 0
-2 0
-12 0
10 0
8 0
-5 0
-15 0
-17 0
-18 0
-13 0
-3 0
-20 0
40 0
11 0
37 0
9 0
38 0
-45 0
-35 0
-30 0
-1 0
-16 0
-6 0
-21 0
-32 0
-27 0
-33 0
-19 0
-34 0
-14 0
-4 0
-36 0
-43 0
-28 0
0
